NAME: a280
TYPE: TOUR
DIMENSION: 280
TOUR_SECTION
1
2
278
16
32
101
100
99
102
103
104
108
109
90
91
92
93
94
97
96
95
98
89
81
82
83
84
85
86
116
65
64
63
59
58
57
56
45
46
55
47
54
48
53
52
51
50
49
44
62
118
117
115
61
60
43
42
41
40
39
35
36
38
37
66
67
70
69
68
71
72
73
74
75
76
77
78
87
113
88
112
111
110
114
80
79
105
106
107
173
174
172
171
170
169
168
167
166
165
164
163
162
161
175
160
159
158
157
119
120
121
122
123
124
125
126
127
128
21
129
154
155
153
156
152
151
177
178
176
181
180
179
182
183
184
185
187
188
189
190
191
192
186
130
131
132
19
20
133
134
135
136
268
137
138
266
265
264
263
262
261
260
259
258
257
254
255
256
249
250
247
244
245
246
231
232
233
234
235
236
239
238
237
240
241
243
242
251
230
229
228
227
226
225
224
223
248
252
209
210
207
206
212
213
211
214
215
216
217
218
219
222
220
221
208
253
139
149
150
140
141
148
147
142
143
144
146
145
199
200
201
202
203
204
205
198
197
193
194
195
196
267
269
270
18
17
30
31
33
34
29
28
27
26
22
25
23
24
14
13
12
11
10
8
9
7
15
271
272
273
274
275
276
277
4
5
6
279
3
280
EOF
